* ENCODING=ISO-8859-1
NAME          CPLEX
ROWS
 N  obj1    
 G  c1      
 G  c2      
 G  c3      
 G  c4      
 G  c5      
 G  c6      
 G  c7      
 G  c8      
 G  c9      
 G  c10     
 G  c11     
 G  c12     
 G  c13     
 G  c14     
 G  c15     
 G  c16     
 G  c17     
 G  c18     
 G  c19     
 G  c20     
 G  c21     
 G  c22     
 G  c23     
 G  c24     
 G  c25     
 G  c26     
 G  c27     
 G  c28     
 G  c29     
 G  c30     
 G  c31     
 G  c32     
 G  c33     
 G  c34     
 G  c35     
 G  c36     
 G  c37     
 G  c38     
 G  c39     
 G  c40     
COLUMNS
    MARK0000  'MARKER'                 'INTORG'
    x1        obj1                            1
    x1        c2                            362
    x1        c3                            104
    x1        c17                           325
    x1        c19                           125
    x1        c22                           546
    x1        c26                           454
    x1        c36                           654
    x2        obj1                            1
    x2        c6                            216
    x2        c8                            776
    x2        c17                           640
    x2        c20                           284
    x3        obj1                            1
    x3        c6                            148
    x3        c27                           375
    x3        c28                           803
    x3        c37                           511
    x4        obj1                            1
    x4        c14                           449
    x4        c17                           814
    x4        c23                           287
    x5        obj1                            1
    x6        obj1                            1
    x6        c20                           233
    x6        c21                           161
    x6        c23                           166
    x6        c31                           603
    x7        obj1                            1
    x7        c4                            456
    x7        c12                           523
    x7        c13                           284
    x7        c20                           400
    x7        c27                           651
    x7        c31                           125
    x8        obj1                            1
    x8        c12                           786
    x8        c15                           393
    x8        c16                           469
    x8        c33                           546
    x8        c34                           392
    x8        c38                           835
    x9        obj1                            1
    x9        c12                           160
    x9        c22                           697
    x9        c28                           947
    x9        c33                           416
    x9        c34                           129
    x10       obj1                            1
    x10       c10                           801
    x10       c12                           384
    x10       c14                           744
    x10       c22                           561
    x10       c27                           413
    x10       c28                           754
    x11       obj1                            1
    x11       c6                            978
    x11       c7                            447
    x11       c12                           730
    x11       c14                           310
    x11       c22                           456
    x11       c24                           220
    x11       c31                           555
    x12       obj1                            1
    x12       c8                            283
    x12       c10                           712
    x12       c12                           853
    x12       c25                           477
    x12       c32                           449
    x12       c34                           411
    x13       obj1                            1
    x13       c2                            699
    x13       c25                           351
    x13       c36                           446
    x14       obj1                            1
    x14       c2                            815
    x14       c35                           980
    x15       obj1                            1
    x15       c1                            723
    x15       c9                            906
    x15       c29                           304
    x15       c38                           484
    x15       c40                           970
    x16       obj1                            1
    x16       c1                            529
    x16       c5                            110
    x16       c21                           614
    x16       c23                           396
    x16       c24                           109
    x16       c30                           648
    x16       c36                           869
    x17       obj1                            1
    x17       c3                            765
    x17       c13                           424
    x17       c26                           465
    x17       c30                           728
    x17       c33                           586
    x17       c37                           659
    x17       c40                           966
    x18       obj1                            1
    x18       c3                            465
    x18       c24                           954
    x18       c37                           270
    x19       obj1                            1
    x19       c1                            695
    x19       c16                           482
    x19       c27                           799
    x19       c30                           352
    x19       c38                           883
    x19       c40                           514
    x20       obj1                            1
    x20       c8                            120
    x20       c19                           904
    x20       c33                           667
    x20       c40                           760
    x21       obj1                            1
    x21       c3                            802
    x21       c11                           494
    x21       c25                           335
    x21       c30                           279
    x21       c33                           636
    x21       c34                           871
    x21       c39                           262
    x22       obj1                            1
    x22       c1                            457
    x22       c13                           916
    x22       c24                           820
    x22       c25                           190
    x22       c31                           601
    x22       c37                           837
    x23       obj1                            1
    x23       c14                           506
    x23       c22                           728
    x23       c30                           947
    x23       c37                           945
    x24       obj1                            1
    x24       c2                            258
    x24       c33                           836
    x24       c34                           651
    x25       obj1                            1
    x25       c10                           905
    x25       c17                           304
    x25       c26                           792
    x26       obj1                            1
    x26       c2                            415
    x26       c7                            592
    x26       c27                           189
    x27       obj1                            1
    x27       c3                            589
    x27       c8                            180
    x27       c19                           563
    x27       c29                           285
    x28       obj1                            1
    x28       c6                            748
    x28       c18                           407
    x28       c22                           955
    x28       c26                           909
    x28       c28                           629
    x29       obj1                            1
    x29       c4                            915
    x29       c8                            788
    x29       c28                           697
    x30       obj1                            1
    x30       c12                           575
    x30       c27                           741
    x31       obj1                            1
    x31       c31                           285
    x32       obj1                            1
    x32       c23                           628
    x33       obj1                            1
    x33       c4                            433
    x33       c11                           411
    x33       c14                           978
    x33       c17                           735
    x33       c20                           222
    x34       obj1                            1
    x34       c8                            675
    x34       c16                           855
    x34       c24                           996
    x34       c26                           523
    x34       c28                           853
    x34       c35                           393
    x35       obj1                            1
    x35       c25                           938
    x35       c31                           547
    x35       c36                           532
    x36       obj1                            1
    x36       c17                           802
    x36       c21                           172
    x36       c24                           782
    x37       obj1                            1
    x37       c7                            728
    x37       c8                            582
    x37       c15                           161
    x37       c18                           629
    x37       c19                           166
    x37       c20                           899
    x38       obj1                            1
    x38       c19                           856
    x38       c28                           499
    x38       c32                           391
    x38       c38                           210
    x39       obj1                            1
    x39       c9                            874
    x39       c24                           177
    x39       c35                           706
    x40       obj1                            1
    x40       c16                           941
    x40       c18                           722
    x40       c26                           436
    x40       c39                           675
    x41       obj1                            1
    x41       c8                            943
    x41       c23                           771
    x41       c27                           777
    x41       c31                           528
    x41       c40                           559
    x42       obj1                            1
    x42       c4                            264
    x42       c5                            490
    x42       c40                           632
    x43       obj1                            1
    x43       c2                            883
    x43       c4                            549
    x43       c9                            543
    x43       c15                           636
    x43       c22                           173
    x43       c31                           864
    x43       c40                           611
    x44       obj1                            1
    x44       c15                           440
    x44       c32                           115
    x45       obj1                            1
    x45       c11                           552
    x45       c20                           856
    x45       c26                           858
    x45       c31                           763
    x45       c39                           104
    x46       obj1                            1
    x46       c4                            642
    x46       c8                            908
    x46       c15                           825
    x46       c16                           167
    x47       obj1                            1
    x47       c18                           292
    x47       c24                           867
    x47       c27                           458
    x47       c28                           582
    x48       obj1                            1
    x48       c2                            401
    x48       c28                           567
    x49       obj1                            1
    x49       c26                           201
    x49       c33                           679
    x50       obj1                            1
    x50       c13                           944
    x50       c32                           698
    x50       c34                           992
    x51       obj1                            1
    x51       c26                           469
    x51       c37                           214
    x52       obj1                            1
    x52       c5                            843
    x52       c10                           685
    x52       c13                           893
    x52       c16                           317
    x52       c32                           810
    x52       c33                           985
    x52       c39                           764
    x53       obj1                            1
    x53       c14                           731
    x53       c24                           923
    x53       c35                           275
    x54       obj1                            1
    x54       c29                           390
    x55       obj1                            1
    x55       c5                            444
    x55       c33                           439
    x55       c39                           913
    x56       obj1                            1
    x56       c2                            881
    x56       c36                           108
    x57       obj1                            1
    x57       c3                            287
    x57       c37                           483
    x58       obj1                            1
    x58       c11                           316
    x58       c24                           233
    x58       c28                           977
    x59       obj1                            1
    x59       c9                            379
    x59       c19                           377
    x59       c29                           785
    x59       c30                           915
    x59       c39                           606
    x60       obj1                            1
    x60       c11                           395
    x60       c22                           963
    x60       c37                           705
    x61       obj1                            1
    x61       c9                            396
    x62       obj1                            1
    x62       c1                            392
    x62       c26                           123
    x62       c27                           575
    x62       c36                           871
    x63       obj1                            1
    x63       c6                            570
    x63       c10                           650
    x63       c17                           486
    x63       c32                           834
    x64       obj1                            1
    x64       c22                           478
    x64       c23                           313
    x64       c29                           516
    x64       c34                           178
    x64       c38                           295
    x65       obj1                            1
    x66       obj1                            1
    x66       c3                            453
    x66       c6                            578
    x66       c12                           898
    x66       c14                           886
    x66       c19                           388
    x66       c32                           103
    x66       c33                           619
    x66       c40                           495
    x67       obj1                            1
    x67       c2                            618
    x67       c39                           962
    x68       obj1                            1
    x68       c2                            590
    x68       c3                            494
    x68       c21                           550
    x68       c23                           293
    x68       c25                           254
    x68       c28                           663
    x69       obj1                            1
    x69       c4                            885
    x69       c16                           348
    x70       obj1                            1
    x70       c6                            326
    x70       c13                           213
    x70       c23                           905
    x70       c27                           145
    x71       obj1                            1
    x71       c3                            776
    x71       c9                            284
    x71       c26                           448
    x71       c31                           603
    x72       obj1                            1
    x72       c6                            661
    x72       c16                           198
    x72       c34                           450
    x72       c36                           440
    x72       c40                           114
    x73       obj1                            1
    x73       c12                           525
    x73       c31                           146
    x73       c33                           519
    x73       c34                           546
    x74       obj1                            1
    x74       c13                           751
    x74       c17                           312
    x74       c25                           328
    x74       c40                           476
    x75       obj1                            1
    x75       c12                           617
    x75       c29                           353
    x75       c37                           513
    x76       obj1                            1
    x76       c23                           922
    x76       c34                           166
    x77       obj1                            1
    x77       c35                           787
    x78       obj1                            1
    x78       c2                            128
    x78       c4                            475
    x78       c7                            175
    x78       c17                           293
    x78       c21                           761
    x78       c23                           684
    x78       c28                           408
    x78       c30                           411
    x78       c32                           950
    x78       c36                           430
    x79       obj1                            1
    x79       c9                            680
    x79       c26                           759
    x80       obj1                            1
    x80       c4                            326
    x80       c23                           358
    x80       c25                           599
    x80       c27                           652
    x80       c29                           471
    x80       c34                           487
    MARK0001  'MARKER'                 'INTEND'
RHS
    rhs       c1                           1398
    rhs       c2                           3025
    rhs       c3                           2368
    rhs       c4                           2473
    rhs       c5                            944
    rhs       c6                           2113
    rhs       c7                            971
    rhs       c8                           2628
    rhs       c9                           2031
    rhs       c10                          1877
    rhs       c11                          1084
    rhs       c12                          3026
    rhs       c13                          2213
    rhs       c14                          2302
    rhs       c15                          1228
    rhs       c16                          1889
    rhs       c17                          2356
    rhs       c18                          1025
    rhs       c19                          1690
    rhs       c20                          1447
    rhs       c21                          1129
    rhs       c22                          2779
    rhs       c23                          2862
    rhs       c24                          3041
    rhs       c25                          1736
    rhs       c26                          3219
    rhs       c27                          2888
    rhs       c28                          4190
    rhs       c29                          1552
    rhs       c30                          2140
    rhs       c31                          2810
    rhs       c32                          2175
    rhs       c33                          3464
    rhs       c34                          2637
    rhs       c35                          1571
    rhs       c36                          2175
    rhs       c37                          2569
    rhs       c38                          1354
    rhs       c39                          2143
    rhs       c40                          3049
BOUNDS
 LI bnd       x1        0
 LI bnd       x2        0
 LI bnd       x3        0
 LI bnd       x4        0
 LI bnd       x5        0
 LI bnd       x6        0
 LI bnd       x7        0
 LI bnd       x8        0
 LI bnd       x9        0
 LI bnd       x10       0
 LI bnd       x11       0
 LI bnd       x12       0
 LI bnd       x13       0
 LI bnd       x14       0
 LI bnd       x15       0
 LI bnd       x16       0
 LI bnd       x17       0
 LI bnd       x18       0
 LI bnd       x19       0
 LI bnd       x20       0
 LI bnd       x21       0
 LI bnd       x22       0
 LI bnd       x23       0
 LI bnd       x24       0
 LI bnd       x25       0
 LI bnd       x26       0
 LI bnd       x27       0
 LI bnd       x28       0
 LI bnd       x29       0
 LI bnd       x30       0
 LI bnd       x31       0
 LI bnd       x32       0
 LI bnd       x33       0
 LI bnd       x34       0
 LI bnd       x35       0
 LI bnd       x36       0
 LI bnd       x37       0
 LI bnd       x38       0
 LI bnd       x39       0
 LI bnd       x40       0
 LI bnd       x41       0
 LI bnd       x42       0
 LI bnd       x43       0
 LI bnd       x44       0
 LI bnd       x45       0
 LI bnd       x46       0
 LI bnd       x47       0
 LI bnd       x48       0
 LI bnd       x49       0
 LI bnd       x50       0
 LI bnd       x51       0
 LI bnd       x52       0
 LI bnd       x53       0
 LI bnd       x54       0
 LI bnd       x55       0
 LI bnd       x56       0
 LI bnd       x57       0
 LI bnd       x58       0
 LI bnd       x59       0
 LI bnd       x60       0
 LI bnd       x61       0
 LI bnd       x62       0
 LI bnd       x63       0
 LI bnd       x64       0
 LI bnd       x65       0
 LI bnd       x66       0
 LI bnd       x67       0
 LI bnd       x68       0
 LI bnd       x69       0
 LI bnd       x70       0
 LI bnd       x71       0
 LI bnd       x72       0
 LI bnd       x73       0
 LI bnd       x74       0
 LI bnd       x75       0
 LI bnd       x76       0
 LI bnd       x77       0
 LI bnd       x78       0
 LI bnd       x79       0
 LI bnd       x80       0
ENDATA
